
include ${pot}.lmp
include kalj.lmp
units lj
atom_style atomic

variable dimensions equal 3
variable density equal 1.2
variable fraca equal 0.8

dimension ${dimensions}
dimension 3
read_restart ${prevbasename}.final.lmprestart.${steps}
read_restart equil/kalj_T0.7_n360_v300_180000_1.final.lmprestart.${steps}
read_restart equil/kalj_T0.7_n360_v300_180000_1.final.lmprestart.180000
Reading restart file ...
  restart file = 15 Sep 2022, LAMMPS = 15 Sep 2022
  restoring atom style atomic from restart
  orthogonal box = (0 0 0) to (6.6943295 6.6943295 6.6943295)
  1 by 2 by 2 MPI processor grid
  restoring pair style lj/cut from restart
  360 atoms
  read_restart CPU = 0.016 seconds
include ${pot}_particles.lmp
include kalj_particles.lmp
mass * 1.0 #  set mass 1.0 for all types

pair_style lj/cut 2.5
#pair coeffs type1 type2 eps sigma
pair_coeff 1 1 1.0 1.00 2.5
pair_coeff 1 2 1.5 0.80 2.0
pair_coeff 2 2 0.5 0.88 2.2
pair_modify shift yes
reset_timestep 0

print "Setting up equilibration run"
Setting up equilibration run
variable dumptime2 equal ${steps}/2000
variable dumptime2 equal 180000/2000
dump 1 all dcd ${dumptime2} ${basename}.unwrap.dcd
dump 1 all dcd 90 ${basename}.unwrap.dcd
dump 1 all dcd 90 prod/kalj_T0.7_n360_v300_prod_180000_1.unwrap.dcd
#dump 2 all dcd ${dumptime2} ${basename}.dcd
dump_modify 1 unwrap yes
#dump_modify 2 unwrap no

restart ${restarttime} ${basename}.restart
restart 180000 ${basename}.restart
restart 180000 prod/kalj_T0.7_n360_v300_prod_180000_1.restart
restart ${steps} ${basename}.final.lmprestart
restart 180000 ${basename}.final.lmprestart
restart 180000 prod/kalj_T0.7_n360_v300_prod_180000_1.final.lmprestart

thermo ${thermotime}
thermo 6000
timestep ${timestep}
timestep 0.003

neighbor 0.5 bin
neigh_modify every 1 delay ${neighborstep} check yes
neigh_modify every 1 delay 25 check yes

#velocity all create ${temp} ${id} dist gaussian
fix 1 all nvt temp ${temp} ${temp} ${taut}
fix 1 all nvt temp 0.7 ${temp} ${taut}
fix 1 all nvt temp 0.7 0.7 ${taut}
fix 1 all nvt temp 0.7 0.7 0.3
Resetting global fix info from restart file:
  fix style: nvt, fix ID: 1

variable steps4 equal ${steps}/4
variable steps4 equal 180000/4
run ${steps4}
run 45000
Generated 0 of 1 mixed pair_coeff terms from geometric mixing rule
All restart file global fix info was re-assigned
Neighbor list info ...
  update: every = 1 steps, delay = 25 steps, check = yes
  max neighbors/atom: 2000, page size: 100000
  master list distance cutoff = 3
  ghost atom cutoff = 3
  binsize = 1.5, bins = 5 5 5
  1 neighbor lists, perpetual/occasional/extra = 1 0 0
  (1) pair lj/cut, perpetual
      attributes: half, newton on
      pair build: half/bin/atomonly/newton
      stencil: half/bin/3d
      bin: standard
Per MPI rank memory allocation (min/avg/max) = 3.137 | 3.138 | 3.139 Mbytes
   Step          Temp          E_pair         E_mol          TotEng         Press     
         0   0.69039105    -6.4853282      0             -5.4526183      6.731832     
      6000   0.68704278    -6.5850002      0             -5.5572987      5.9699612    
     12000   0.72552566    -6.5827869      0             -5.4975214      6.1459969    
     18000   0.69950168    -6.4164566      0             -5.3701187      7.1492162    
     24000   0.65901424    -6.6172868      0             -5.6315113      5.6864228    
     30000   0.68136535    -6.5856879      0             -5.5664789      5.9141597    
     36000   0.69796232    -6.54853        0             -5.5044947      6.2843429    
     42000   0.69489488    -6.402901       0             -5.3634541      7.0635286    
     45000   0.75446677    -6.4843922      0             -5.3558356      6.7736267    
Loop time of 3.87206 on 4 procs for 45000 steps with 360 atoms

Performance: 3012351.566 tau/day, 11621.727 timesteps/s, 4.184 Matom-step/s
99.7% CPU use with 4 MPI tasks x 1 OpenMP threads

MPI task timing breakdown:
Section |  min time  |  avg time  |  max time  |%varavg| %total
---------------------------------------------------------------
Pair    | 2.2777     | 2.3564     | 2.478      |   5.2 | 60.86
Neigh   | 0.24321    | 0.25115    | 0.25849    |   1.1 |  6.49
Comm    | 0.97829    | 1.0951     | 1.1728     |   7.3 | 28.28
Output  | 0.015028   | 0.017537   | 0.022446   |   2.2 |  0.45
Modify  | 0.10422    | 0.11539    | 0.12646    |   2.4 |  2.98
Other   |            | 0.0365     |            |       |  0.94

Nlocal:             90 ave          94 max          86 min
Histogram: 1 0 0 1 0 0 1 0 0 1
Nghost:           1239 ave        1262 max        1217 min
Histogram: 2 0 0 0 0 0 0 0 1 1
Neighs:        5200.75 ave        5563 max        5029 min
Histogram: 2 0 1 0 0 0 0 0 0 1

Total # of neighbors = 20803
Ave neighs/atom = 57.786111
Neighbor list builds = 1475
Dangerous builds = 94
Total wall time: 0:00:03
